(set-logic QF_S)
(declare-fun var0 () Int)
(declare-fun var1 () Int)
(declare-fun var2 () String)
(declare-fun var3 () Int)
(declare-fun var4 () Int)
(declare-fun var5 () String)
(declare-fun var6 () String)
(declare-fun var7 () String)
(assert (not (str.suffixof (str.substr "r|5y:aKQ+p" var0 var1) (str.substr var2 var3 var4))))
(assert (str.contains (str.replace var5 var6 var7) (str.replace var5 var2 var5)))
(assert (not (> (str.len var2) (str.to.int var7))))
(assert (str.contains var7 var6))
(check-sat)